Problem:    
Rows:       260
Columns:    89 (72 integer, 72 binary)
Non-zeros:  974
Status:     INTEGER OPTIMAL
Objective:  value = 30.370658 (MINimum)

   No.   Row name        Activity     Lower bound   Upper bound
------ ------------    ------------- ------------- -------------
     1 r.5                   30.3707             0               
     2 r.6                    22.042      -990.256               
     3 r.7                   1030.37             0               
     4 r.8                  -983.556      -991.823               
     5 r.9                   1030.37             0               
     6 r.10                 -984.385      -990.281               
     7 r.11                  30.3707             0               
     8 r.12                  -985.87      -991.766               
     9 r.13                  1030.37             0               
    10 r.14                 -984.078      -999.693               
    11 r.15                  30.3707             0               
    12 r.16                 -992.507      -998.403               
    13 r.17                  1030.37             0               
    14 r.18                 -980.777      -999.519               
    15 r.19                  30.3707             0               
    16 r.20                  19.2226      -997.638               
    17 r.21                  30.3707             0               
    18 r.22                  23.4819       -995.26               
    19 r.23                  1030.37             0               
    20 r.24                 -976.518      -995.684               
    21 r.25                  1030.37             0               
    22 r.26                 -999.742      -999.742               
    23 r.27                  30.3707             0               
    24 r.28                 -998.753      -998.753               
    25 r.29                  1030.37             0               
    26 r.30                 -969.629      -988.852               
    27 r.31                  30.3707             0               
    28 r.32                  30.3707      -994.374               
    29 r.33                  30.3707             0               
    30 r.34                  30.3707      -984.604               
    31 r.35                  1030.37             0               
    32 r.36                 -969.629      -993.111               
    33 r.37                        1             1             = 
    34 r.38                        1             1             = 
    35 r.39                        1             1             = 
    36 r.40                        1             1             = 
    37 r.41                        1             1             = 
    38 r.42                        1             1             = 
    39 r.43                        1             1             = 
    40 r.44                        1             1             = 
    41 r.45                     1001             2               
    42 r.46                    -1001         -1001               
    43 r.47                  1996.39      -990.281               
    44 r.48                     1001             2               
    45 r.49                    -1001         -1001               
    46 r.50                  994.964      -991.766               
    47 r.51                     1001             2               
    48 r.52                    -1001         -1001               
    49 r.53                   1996.7      -999.693               
    50 r.54                     1001             2               
    51 r.55                    -1001         -1001               
    52 r.56                  988.327      -998.403               
    53 r.57                     1001             2               
    54 r.58                    -1001         -1001               
    55 r.59                     2000      -999.519               
    56 r.60                     1001             2               
    57 r.61                    -1001         -1001               
    58 r.62                  2000.06      -997.638               
    59 r.63                     1000             2               
    60 r.64                    -1000         -1001               
    61 r.65                  2004.26       -995.26               
    62 r.66                        2             2               
    63 r.67                       -2         -1001               
    64 r.68                 -995.684      -995.684               
    65 r.69                  16.1452      -990.256               
    66 r.70                 -989.452      -991.823               
    67 r.71                  1026.24      -990.256               
    68 r.72                  20.6408      -991.823               
    69 r.73                 -988.852      -988.852               
    70 r.74                  11.1481      -994.374               
    71 r.75                 -988.796      -988.852               
    72 r.76                  11.2045      -994.374               
    73 r.77                  11.1481      -984.604               
    74 r.78                 -988.852      -993.111               
    75 r.79                  11.2045      -984.604               
    76 r.80                 -988.796      -993.111               
    77 r.81                     1001             2               
    78 r.82                    -1001         -1001               
    79 r.83                  2006.43       9.74352               
    80 r.84                     1001             2               
    81 r.85                    -1001         -1001               
    82 r.86                  3002.31       8.17667               
    83 r.87                        2             2               
    84 r.88                       -2         -1001               
    85 r.89                 -999.693      -999.693               
    86 r.90                     1000             2               
    87 r.91                    -1000         -1001               
    88 r.92                  1993.36      -998.403               
    89 r.93                        2             2               
    90 r.94                       -2         -1001               
    91 r.95                 -996.393      -999.519               
    92 r.96                     1000             2               
    93 r.97                    -1000         -1001               
    94 r.98                  3005.09      -997.638               
    95 r.99                     1001             2               
    96 r.100                   -1001         -1001               
    97 r.101                 2007.87       -995.26               
    98 r.102                    1001             2               
    99 r.103                   -1001         -1001               
   100 r.104                 3009.35      -995.684               
   101 r.105                -990.281      -990.281               
   102 r.106                -991.766      -991.766               
   103 r.107                 19.8119      -990.281               
   104 r.108                 18.3269      -991.766               
   105 r.109                -985.245      -988.852               
   106 r.110                 14.7552      -994.374               
   107 r.111                 16.2403      -988.852               
   108 r.112                 1016.24      -994.374               
   109 r.113                    1001             2               
   110 r.114                   -1001         -1001               
   111 r.115                 2014.76      -984.604               
   112 r.116                    1001             2               
   113 r.117                   -1001         -1001               
   114 r.118                 3016.24      -993.111               
   115 r.119                    1001             2               
   116 r.120                   -1001         -1001               
   117 r.121                  2003.3       9.74352               
   118 r.122                    1001             2               
   119 r.123                   -1001         -1001               
   120 r.124                 3011.67       8.17667               
   121 r.125                       2             2               
   122 r.126                      -2         -1001               
   123 r.127                 996.874       9.71863               
   124 r.128                    1000             2               
   125 r.129                   -1000         -1001               
   126 r.130                 2009.36        8.2336               
   127 r.131                       2             2               
   128 r.132                      -2         -1001               
   129 r.133                -999.519      -999.519               
   130 r.134                    1000             2               
   131 r.135                   -1000         -1001               
   132 r.136                 3014.45      -997.638               
   133 r.137                    1001             2               
   134 r.138                   -1001         -1001               
   135 r.139                 2004.74       -995.26               
   136 r.140                    1001             2               
   137 r.141                   -1001         -1001               
   138 r.142                 3018.71      -995.684               
   139 r.143                -989.975      -999.693               
   140 r.144                -998.403      -998.403               
   141 r.145                 20.1187      -999.693               
   142 r.146                 11.6899      -998.403               
   143 r.147                -988.371      -988.852               
   144 r.148                 11.6291      -994.374               
   145 r.149                 25.5991      -988.852               
   146 r.150                  1025.6      -994.374               
   147 r.151                 11.6291      -984.604               
   148 r.152                -988.371      -993.111               
   149 r.153                  1025.6      -984.604               
   150 r.154                 25.5991      -993.111               
   151 r.155                    1001             2               
   152 r.156                   -1001         -1001               
   153 r.157                 2002.82       9.74352               
   154 r.158                    1001             2               
   155 r.159                   -1001         -1001               
   156 r.160                 1997.22       8.17667               
   157 r.161                       2             2               
   158 r.162                      -2         -1001               
   159 r.163                 996.393       9.71863               
   160 r.164                    1000             2               
   161 r.165                   -1000         -1001               
   162 r.166                 994.908        8.2336               
   163 r.167                       2             2               
   164 r.168                      -2         -1001               
   165 r.169                   996.7       0.30675               
   166 r.170                    1000             2               
   167 r.171                   -1000         -1001               
   168 r.172                 988.271       1.59664               
   169 r.173                    1001             2               
   170 r.174                   -1001         -1001               
   171 r.175                 2004.26       -995.26               
   172 r.176                    1001             2               
   173 r.177                   -1001         -1001               
   174 r.178                 2004.26      -995.684               
   175 r.179                -986.674      -999.519               
   176 r.180                 13.3258      -997.638               
   177 r.181                 23.4191      -999.519               
   178 r.182                 1023.42      -997.638               
   179 r.183                -988.852      -988.852               
   180 r.184                 11.1481      -994.374               
   181 r.185                -988.852      -988.852               
   182 r.186                 11.1481      -994.374               
   183 r.187                    1001             2               
   184 r.188                   -1001         -1001               
   185 r.189                 2011.15      -984.604               
   186 r.190                    1001             2               
   187 r.191                   -1001         -1001               
   188 r.192                 2011.15      -993.111               
   189 r.193                    1000             2               
   190 r.194                   -1000         -1001               
   191 r.195                 1998.56       9.74352               
   192 r.196                       2             2               
   193 r.197                      -2         -1001               
   194 r.198                 992.962       8.17667               
   195 r.199                    1001             2               
   196 r.200                   -1001         -1001               
   197 r.201                 1992.13       9.71863               
   198 r.202                    1001             2               
   199 r.203                   -1001         -1001               
   200 r.204                 990.648        8.2336               
   201 r.205                    1001             2               
   202 r.206                   -1001         -1001               
   203 r.207                 1992.44       0.30675               
   204 r.208                    1001             2               
   205 r.209                   -1001         -1001               
   206 r.210                 984.011       1.59664               
   207 r.211                    1001             2               
   208 r.212                   -1001         -1001               
   209 r.213                 1995.74      0.481044               
   210 r.214                    1001             2               
   211 r.215                   -1001         -1001               
   212 r.216                 1995.74       2.36221               
   213 r.217                 17.5852       -995.26               
   214 r.218                -982.415      -995.684               
   215 r.219                 1027.68       -995.26               
   216 r.220                 27.6784      -995.684               
   217 r.221                    1001             2               
   218 r.222                   -1001         -1001               
   219 r.223                 2006.89      -988.852               
   220 r.224                    1001             2               
   221 r.225                   -1001         -1001               
   222 r.226                 2006.89      -994.374               
   223 r.227                 6.88872      -984.604               
   224 r.228                -993.111      -993.111               
   225 r.229                 6.88872      -984.604               
   226 r.230                -993.111      -993.111               
   227 r.231                -975.526      -988.852               
   228 r.232                 24.4739      -994.374               
   229 r.233                 34.5672      -988.852               
   230 r.234                 1034.57      -994.374               
   231 r.235                    1001             2               
   232 r.236                   -1001         -1001               
   233 r.237                 1993.11        4.7398               
   234 r.238                    1001             2               
   235 r.239                   -1001         -1001               
   236 r.240                 1993.11       4.31574               
   237 r.241                    1001             2               
   238 r.242                   -1001         -1001               
   239 r.243                    2000      -984.604               
   240 r.244                    1001             2               
   241 r.245                   -1001         -1001               
   242 r.246                    2000      -993.111               
   243 r.247                    1001             2               
   244 r.248                   -1001         -1001               
   245 r.249                 1985.24       9.71863               
   246 r.250                    1001             2               
   247 r.251                   -1001         -1001               
   248 r.252                  983.76        8.2336               
   249 r.253                    1001             2               
   250 r.254                   -1001         -1001               
   251 r.255                 1988.85      0.481044               
   252 r.256                    1001             2               
   253 r.257                   -1001         -1001               
   254 r.258                 1988.85       2.36221               
   255 r.259                    1001             2               
   256 r.260                   -1001         -1001               
   257 r.261                    2000       11.1481               
   258 r.262                    1001             2               
   259 r.263                   -1001         -1001               
   260 r.264                    2000       5.62641               

   No. Column name       Activity     Lower bound   Upper bound
------ ------------    ------------- ------------- -------------
     1 tt                    30.3707             0               
     2 s_1_1        *              0             0             1 
     3 t_1_1                 11.1481             0               
     4 s_1_8        *              0             0             1 
     5 s_1_7        *              1             0             1 
     6 s_2_1        *              1             0             1 
     7 t_2_1                 11.2045             0               
     8 s_2_8        *              1             0             1 
     9 s_2_7        *              0             0             1 
    10 s_1_2        *              1             0             1 
    11 t_1_2                 14.7552             0               
    12 s_2_2        *              0             0             1 
    13 t_2_2                 1016.24             0               
    14 s_1_3        *              1             0             1 
    15 t_1_3                 11.6291             0               
    16 s_2_3        *              0             0             1 
    17 t_2_3                  1025.6             0               
    18 s_1_4        *              1             0             1 
    19 t_1_4                 11.1481             0               
    20 s_2_4        *              0             0             1 
    21 t_2_4                 11.1481             0               
    22 s_1_5        *              0             0             1 
    23 t_1_5                 6.88872             0               
    24 s_2_5        *              1             0             1 
    25 t_2_5                 6.88872             0               
    26 s_1_6        *              1             0             1 
    27 t_1_6                 24.4739             0               
    28 s_2_6        *              0             0             1 
    29 t_2_6                 1034.57             0               
    30 t_1_7                       0             0               
    31 t_2_7                       0             0               
    32 t_1_8                       0             0               
    33 t_2_8                       0             0               
    34 r_1_1_2      *              1             0             1 
    35 u_1_1_2      *              0             0             1 
    36 r_2_1_2      *              1             0             1 
    37 u_2_1_2      *              0             0             1 
    38 r_1_1_3      *              1             0             1 
    39 u_1_1_3      *              0             0             1 
    40 r_2_1_3      *              1             0             1 
    41 u_2_1_3      *              0             0             1 
    42 r_1_1_4      *              1             0             1 
    43 u_1_1_4      *              0             0             1 
    44 r_2_1_4      *              1             0             1 
    45 u_2_1_4      *              0             0             1 
    46 r_1_1_5      *              1             0             1 
    47 u_1_1_5      *              0             0             1 
    48 r_2_1_5      *              0             0             1 
    49 u_2_1_5      *              1             0             1 
    50 r_1_2_3      *              0             0             1 
    51 u_1_2_3      *              1             0             1 
    52 r_2_2_3      *              1             0             1 
    53 u_2_2_3      *              0             0             1 
    54 r_1_2_4      *              0             0             1 
    55 u_1_2_4      *              1             0             1 
    56 r_2_2_4      *              1             0             1 
    57 u_2_2_4      *              0             0             1 
    58 r_1_2_5      *              1             0             1 
    59 u_1_2_5      *              0             0             1 
    60 r_2_2_5      *              1             0             1 
    61 u_2_2_5      *              0             0             1 
    62 r_1_2_8      *              1             0             1 
    63 u_1_2_8      *              0             0             1 
    64 r_2_2_8      *              1             0             1 
    65 u_2_2_8      *              0             0             1 
    66 r_1_3_4      *              0             0             1 
    67 u_1_3_4      *              1             0             1 
    68 r_2_3_4      *              1             0             1 
    69 u_2_3_4      *              0             0             1 
    70 r_1_3_5      *              1             0             1 
    71 u_1_3_5      *              0             0             1 
    72 r_2_3_5      *              1             0             1 
    73 u_2_3_5      *              0             0             1 
    74 r_1_4_5      *              1             0             1 
    75 u_1_4_5      *              0             0             1 
    76 r_2_4_5      *              1             0             1 
    77 u_2_4_5      *              0             0             1 
    78 r_1_4_8      *              1             0             1 
    79 u_1_4_8      *              0             0             1 
    80 r_2_4_8      *              1             0             1 
    81 u_2_4_8      *              0             0             1 
    82 r_1_5_7      *              1             0             1 
    83 u_1_5_7      *              0             0             1 
    84 r_2_5_7      *              1             0             1 
    85 u_2_5_7      *              0             0             1 
    86 r_1_7_8      *              1             0             1 
    87 u_1_7_8      *              0             0             1 
    88 r_2_7_8      *              1             0             1 
    89 u_2_7_8      *              0             0             1 

Integer feasibility conditions:

KKT.PE: max.abs.err = 4.55e-13 on row 82
        max.rel.err = 7.53e-17 on row 82
        High quality

KKT.PB: max.abs.err = 0.00e+00 on row 0
        max.rel.err = 0.00e+00 on row 0
        High quality

End of output
